Route 1: 0 2 26 90 46 42 1 15 12 52 0
Route 2: 0 61 10 82 73 80 86 34 25 71 53 0
Route 3: 0 18 31 83 56 97 75 87 7 78 62 43 54 0
Route 4: 0 9 96 85 64 36 3 14 0
Route 5: 0 38 24 5 59 89 37 58 94 0
Route 6: 0 20 29 13 76 65 48 92 4 66 50 39 40 0
Route 7: 0 41 11 21 16 23 63 6 60 81 55 0
Route 8: 0 35 44 68 67 91 49 27 0
Route 9: 0 45 32 69 22 88 93 99 57 98 0
Route 10: 0 77 17 84 30 72 70 28 51 33 74 95 0
Route 11: 0 79 19 47 8 100 0
